106441
0,12,36,17,20,47,23,30,64,49,3,52,82,62,38,51,40,77,5,60,14,68,24,41,54,22,11,2,42,56,33,48,46,59,80,71,50,55,6,26,32,10,15,37,1,29,34,78,27,7,58,67,43,21,18,4,31,81,74,39,73,57,16,76,8,70,35,65,19,66,75,25,69,13,61,79,53,45,44,72,63,28,9,0